57 87 46 62 100 51 36 34 52 47 
24 20 90 70 11 26 60 59 69 49 
86 96 31 53 58 39 48 23 2 
42 43 41 54 14 93 88 79 22 
76 17 8 94 28 45 4 66 75 
55 71 65 35 30 61 64 89 91 
3 67 32 33 15 9 50 12 1 21 
95 5 19 38 74 84 85 99 
63 78 81 40 44 6 97 80 
98 83 10 27 29 73 77 68 
25 7 13 18 82 16 
92 37 56 72 

